p edge 105 143
n 0
n 1
n 2
n 3
n 4
n 5
n 6
n 7
n 8
n 9
n 10
n 11
n 12
n 13
n 14
n 15
n 16
n 17
n 18
n 19
n 20
n 21
n 22
n 23
n 24
n 25
n 26
n 27
n 28
n 29
n 30
n 31
n 32
n 33
n 34
n 35
n 36
n 37
n 38
n 39
n 40
n 41
n 42
n 43
n 44
n 45
n 46
n 47
n 48
n 49
n 50
n 51
n 52
n 53
n 54
n 55
n 56
n 57
n 58
n 59
n 60
n 61
n 62
n 63
n 64
n 65
n 66
n 67
n 68
n 69
n 70
n 71
n 72
n 73
n 74
n 75
n 76
n 77
n 78
n 79
n 80
n 81
n 82
n 83
n 84
n 85
n 86
n 87
n 88
n 89
n 90
n 91
n 92
n 93
n 94
n 95
n 96
n 97
n 98
n 99
n 100
n 101
n 102
n 103
n 104
e 2 0
e 4 2
e 5 3
e 6 3
e 7 1
e 8 1
e 9 4
e 10 4
e 11 8
e 12 8
e 13 7
e 14 7
e 16 5
e 17 10
e 18 10
e 19 9
e 20 9
e 22 6
e 24 11
e 25 13
e 26 13
e 29 14
e 30 14
e 31 16
e 32 16
e 33 19
e 34 19
e 35 18
e 38 15
e 40 17
e 41 20
e 42 20
e 43 22
e 44 22
e 46 21
e 47 25
e 48 25
e 49 23
e 50 23
e 52 24
e 54 27
e 55 30
e 56 30
e 58 5
e 58 15
e 58 57
e 59 53
e 60 24
e 60 51
e 60 59
e 61 12
e 61 27
e 62 11
e 62 23
e 62 61
e 63 15
e 63 57
e 64 21
e 64 45
e 65 17
e 65 39
e 66 2
e 66 3
e 66 65
e 67 1
e 68 6
e 68 21
e 68 67
e 69 12
e 69 28
e 70 63
e 70 64
e 70 69
e 71 27
e 71 59
e 72 18
e 72 36
e 72 71
e 73 0
e 73 67
e 74 37
e 74 57
e 75 73
e 75 74
e 76 73
e 76 74
e 76 75
e 78 77
e 79 77
e 80 79
e 81 79
e 82 80
e 83 80
e 84 78
e 85 78
e 86 81
e 87 81
e 88 85
e 89 28
e 89 85
e 90 26
e 90 84
e 91 29
e 91 84
e 92 37
e 92 38
e 92 82
e 93 31
e 93 32
e 93 82
e 94 39
e 94 40
e 94 87
e 95 35
e 95 36
e 95 87
e 96 33
e 96 34
e 96 86
e 97 41
e 97 42
e 97 86
e 98 45
e 98 46
e 98 83
e 99 43
e 99 44
e 99 83
e 100 49
e 100 50
e 100 88
e 101 51
e 101 52
e 101 88
e 102 47
e 102 48
e 102 90
e 103 53
e 103 54
e 103 89
e 104 55
e 104 56
e 104 91
